n_res = 4;
rc = [ 17, 18, 20, 18 ];
n_tasks = 30;
d = [ 2, 8, 2, 1, 10, 7, 7, 7, 7, 4, 6, 4, 1, 7, 10, 2, 8, 1, 5, 5, 2, 3, 9, 10, 10, 7, 1, 4, 7, 3 ];
rr = [| 3, 7, 8, 5, 9, 1, 7, 6, 5, 1, 6, 10, 10, 3, 10, 8, 5, 5, 4, 8, 7, 7, 5, 4, 1, 7, 5, 1, 8, 6
      | 5, 2, 1, 9, 6, 7, 7, 3, 1, 9, 7, 9, 8, 7, 10, 1, 5, 9, 6, 4, 9, 3, 2, 7, 5, 6, 6, 7, 6, 1
      | 1, 10, 5, 9, 1, 5, 8, 6, 6, 10, 10, 2, 4, 9, 8, 8, 3, 8, 7, 10, 1, 7, 6, 1, 1, 7, 5, 3, 5, 5
      | 1, 6, 2, 2, 8, 9, 1, 7, 3, 3, 6, 10, 9, 4, 3, 1, 9, 3, 6, 8, 3, 9, 5, 7, 6, 10, 6, 4, 10, 9 |];
suc = [ { 5, 27 },
       { 7, 9, 10 },
       { 4, 11 },
       { 15 },
       { 6, 18 },
       { 8 },
       { 23 },
       { 12, 21 },
       { 13, 16, 17 },
       { 19 },
       { 14, 19, 20 },
       { 24 },
       { 28 },
       { 16, 21 },
       { 21 },
       { 25, 30 },
       { 28, 29 },
       { 22, 25 },
       { 26 },
       { 22, 23 },
       { 24 },
       { 29 },
       { 29 },
       { 30 },
       { 26 },
       { 28 },
       { 30 },
       {  },
       {  },
       {  } ];
